language Essence 1.3

letting bot_end be
        [180, 192, 37, 65, 40, 33, 38, 59, 220, 63, 3, 52, 171, 45, 140, 49, 163, 131, 178, 149, 170; int(1..21)]
letting bot_start be
        [97, 47, 219, 85, 150, 56, 144, 181, 169, 213, 89, 212, 36, 7, 20, 11, 123, 183, 194, 77, 14; int(1..21)]
letting bots be 21
letting buffer_col be 2
letting buffer_row be 2
letting corridor_size be 1
letting n_shelves_col be 3
letting n_shelves_row be 7
letting shelf_col_size be 2
letting shelf_row_size be 1
